p tw 25 63
0 1
0 2
0 4
0 5
0 23
0 17
0 20
0 14
1 16
1 21
1 10
1 15
1 8
1 14
1 24
2 3
2 8
2 13
2 15
2 14
3 13
3 8
3 19
4 18
4 12
4 17
4 10
4 13
4 6
4 11
5 20
5 6
5 7
6 7
6 22
6 10
7 14
7 19
7 13
7 20
7 22
8 23
8 17
9 10
9 16
9 12
9 22
9 21
10 17
10 19
10 23
11 12
12 14
13 18
13 15
14 23
14 22
15 23
17 20
17 18
17 24
18 23
19 23
